c description: Tseitin formula on Random 5-regular graph of 20 vertices, with odd charge
c generator: CNFgen (0.9.0)
c copyright: (C) 2012-2020 Massimo Lauria <massimo.lauria@uniroma1.it>
c url: https://massimolauria.net/cnfgen
c random seed: 1
c command line: cnfgen --seed 1 tseitin randomodd gnd 20 5
c
p cnf 50 320
1 2 3 4 -5 0
1 2 3 -4 5 0
1 2 -3 4 5 0
1 2 -3 -4 -5 0
1 -2 3 4 5 0
1 -2 3 -4 -5 0
1 -2 -3 4 -5 0
1 -2 -3 -4 5 0
-1 2 3 4 5 0
-1 2 3 -4 -5 0
-1 2 -3 4 -5 0
-1 2 -3 -4 5 0
-1 -2 3 4 -5 0
-1 -2 3 -4 5 0
-1 -2 -3 4 5 0
-1 -2 -3 -4 -5 0
1 6 7 8 -9 0
1 6 7 -8 9 0
1 6 -7 8 9 0
1 6 -7 -8 -9 0
1 -6 7 8 9 0
1 -6 7 -8 -9 0
1 -6 -7 8 -9 0
1 -6 -7 -8 9 0
-1 6 7 8 9 0
-1 6 7 -8 -9 0
-1 6 -7 8 -9 0
-1 6 -7 -8 9 0
-1 -6 7 8 -9 0
-1 -6 7 -8 9 0
-1 -6 -7 8 9 0
-1 -6 -7 -8 -9 0
10 11 12 13 14 0
10 11 12 -13 -14 0
10 11 -12 13 -14 0
10 11 -12 -13 14 0
10 -11 12 13 -14 0
10 -11 12 -13 14 0
10 -11 -12 13 14 0
10 -11 -12 -13 -14 0
-10 11 12 13 -14 0
-10 11 12 -13 14 0
-10 11 -12 13 14 0
-10 11 -12 -13 -14 0
-10 -11 12 13 14 0
-10 -11 12 -13 -14 0
-10 -11 -12 13 -14 0
-10 -11 -12 -13 14 0
15 16 17 18 -19 0
15 16 17 -18 19 0
15 16 -17 18 19 0
15 16 -17 -18 -19 0
15 -16 17 18 19 0
15 -16 17 -18 -19 0
15 -16 -17 18 -19 0
15 -16 -17 -18 19 0
-15 16 17 18 19 0
-15 16 17 -18 -19 0
-15 16 -17 18 -19 0
-15 16 -17 -18 19 0
-15 -16 17 18 -19 0
-15 -16 17 -18 19 0
-15 -16 -17 18 19 0
-15 -16 -17 -18 -19 0
20 21 22 23 24 0
20 21 22 -23 -24 0
20 21 -22 23 -24 0
20 21 -22 -23 24 0
20 -21 22 23 -24 0
20 -21 22 -23 24 0
20 -21 -22 23 24 0
20 -21 -22 -23 -24 0
-20 21 22 23 -24 0
-20 21 22 -23 24 0
-20 21 -22 23 24 0
-20 21 -22 -23 -24 0
-20 -21 22 23 24 0
-20 -21 22 -23 -24 0
-20 -21 -22 23 -24 0
-20 -21 -22 -23 24 0
2 20 25 26 27 0
2 20 25 -26 -27 0
2 20 -25 26 -27 0
2 20 -25 -26 27 0
2 -20 25 26 -27 0
2 -20 25 -26 27 0
2 -20 -25 26 27 0
2 -20 -25 -26 -27 0
-2 20 25 26 -27 0
-2 20 25 -26 27 0
-2 20 -25 26 27 0
-2 20 -25 -26 -27 0
-2 -20 25 26 27 0
-2 -20 25 -26 -27 0
-2 -20 -25 26 -27 0
-2 -20 -25 -26 27 0
3 10 15 28 29 0
3 10 15 -28 -29 0
3 10 -15 28 -29 0
3 10 -15 -28 29 0
3 -10 15 28 -29 0
3 -10 15 -28 29 0
3 -10 -15 28 29 0
3 -10 -15 -28 -29 0
-3 10 15 28 -29 0
-3 10 15 -28 29 0
-3 10 -15 28 29 0
-3 10 -15 -28 -29 0
-3 -10 15 28 29 0
-3 -10 15 -28 -29 0
-3 -10 -15 28 -29 0
-3 -10 -15 -28 29 0
21 28 30 31 32 0
21 28 30 -31 -32 0
21 28 -30 31 -32 0
21 28 -30 -31 32 0
21 -28 30 31 -32 0
21 -28 30 -31 32 0
21 -28 -30 31 32 0
21 -28 -30 -31 -32 0
-21 28 30 31 -32 0
-21 28 30 -31 32 0
-21 28 -30 31 32 0
-21 28 -30 -31 -32 0
-21 -28 30 31 32 0
-21 -28 30 -31 -32 0
-21 -28 -30 31 -32 0
-21 -28 -30 -31 32 0
25 33 34 35 -36 0
25 33 34 -35 36 0
25 33 -34 35 36 0
25 33 -34 -35 -36 0
25 -33 34 35 36 0
25 -33 34 -35 -36 0
25 -33 -34 35 -36 0
25 -33 -34 -35 36 0
-25 33 34 35 36 0
-25 33 34 -35 -36 0
-25 33 -34 35 -36 0
-25 33 -34 -35 36 0
-25 -33 34 35 -36 0
-25 -33 34 -35 36 0
-25 -33 -34 35 36 0
-25 -33 -34 -35 -36 0
16 33 37 38 -39 0
16 33 37 -38 39 0
16 33 -37 38 39 0
16 33 -37 -38 -39 0
16 -33 37 38 39 0
16 -33 37 -38 -39 0
16 -33 -37 38 -39 0
16 -33 -37 -38 39 0
-16 33 37 38 39 0
-16 33 37 -38 -39 0
-16 33 -37 38 -39 0
-16 33 -37 -38 39 0
-16 -33 37 38 -39 0
-16 -33 37 -38 39 0
-16 -33 -37 38 39 0
-16 -33 -37 -38 -39 0
4 11 37 40 41 0
4 11 37 -40 -41 0
4 11 -37 40 -41 0
4 11 -37 -40 41 0
4 -11 37 40 -41 0
4 -11 37 -40 41 0
4 -11 -37 40 41 0
4 -11 -37 -40 -41 0
-4 11 37 40 -41 0
-4 11 37 -40 41 0
-4 11 -37 40 41 0
-4 11 -37 -40 -41 0
-4 -11 37 40 41 0
-4 -11 37 -40 -41 0
-4 -11 -37 40 -41 0
-4 -11 -37 -40 41 0
26 30 34 40 -42 0
26 30 34 -40 42 0
26 30 -34 40 42 0
26 30 -34 -40 -42 0
26 -30 34 40 42 0
26 -30 34 -40 -42 0
26 -30 -34 40 -42 0
26 -30 -34 -40 42 0
-26 30 34 40 42 0
-26 30 34 -40 -42 0
-26 30 -34 40 -42 0
-26 30 -34 -40 42 0
-26 -30 34 40 -42 0
-26 -30 34 -40 42 0
-26 -30 -34 40 42 0
-26 -30 -34 -40 -42 0
12 17 27 43 44 0
12 17 27 -43 -44 0
12 17 -27 43 -44 0
12 17 -27 -43 44 0
12 -17 27 43 -44 0
12 -17 27 -43 44 0
12 -17 -27 43 44 0
12 -17 -27 -43 -44 0
-12 17 27 43 -44 0
-12 17 27 -43 44 0
-12 17 -27 43 44 0
-12 17 -27 -43 -44 0
-12 -17 27 43 44 0
-12 -17 27 -43 -44 0
-12 -17 -27 43 -44 0
-12 -17 -27 -43 44 0
22 31 43 45 46 0
22 31 43 -45 -46 0
22 31 -43 45 -46 0
22 31 -43 -45 46 0
22 -31 43 45 -46 0
22 -31 43 -45 46 0
22 -31 -43 45 46 0
22 -31 -43 -45 -46 0
-22 31 43 45 -46 0
-22 31 43 -45 46 0
-22 31 -43 45 46 0
-22 31 -43 -45 -46 0
-22 -31 43 45 46 0
-22 -31 43 -45 -46 0
-22 -31 -43 45 -46 0
-22 -31 -43 -45 46 0
6 23 41 47 -48 0
6 23 41 -47 48 0
6 23 -41 47 48 0
6 23 -41 -47 -48 0
6 -23 41 47 48 0
6 -23 41 -47 -48 0
6 -23 -41 47 -48 0
6 -23 -41 -47 48 0
-6 23 41 47 48 0
-6 23 41 -47 -48 0
-6 23 -41 47 -48 0
-6 23 -41 -47 48 0
-6 -23 41 47 -48 0
-6 -23 41 -47 48 0
-6 -23 -41 47 48 0
-6 -23 -41 -47 -48 0
7 18 35 38 49 0
7 18 35 -38 -49 0
7 18 -35 38 -49 0
7 18 -35 -38 49 0
7 -18 35 38 -49 0
7 -18 35 -38 49 0
7 -18 -35 38 49 0
7 -18 -35 -38 -49 0
-7 18 35 38 -49 0
-7 18 35 -38 49 0
-7 18 -35 38 49 0
-7 18 -35 -38 -49 0
-7 -18 35 38 49 0
-7 -18 35 -38 -49 0
-7 -18 -35 38 -49 0
-7 -18 -35 -38 49 0
5 13 19 32 42 0
5 13 19 -32 -42 0
5 13 -19 32 -42 0
5 13 -19 -32 42 0
5 -13 19 32 -42 0
5 -13 19 -32 42 0
5 -13 -19 32 42 0
5 -13 -19 -32 -42 0
-5 13 19 32 -42 0
-5 13 19 -32 42 0
-5 13 -19 32 42 0
-5 13 -19 -32 -42 0
-5 -13 19 32 42 0
-5 -13 19 -32 -42 0
-5 -13 -19 32 -42 0
-5 -13 -19 -32 42 0
14 39 47 49 -50 0
14 39 47 -49 50 0
14 39 -47 49 50 0
14 39 -47 -49 -50 0
14 -39 47 49 50 0
14 -39 47 -49 -50 0
14 -39 -47 49 -50 0
14 -39 -47 -49 50 0
-14 39 47 49 50 0
-14 39 47 -49 -50 0
-14 39 -47 49 -50 0
-14 39 -47 -49 50 0
-14 -39 47 49 -50 0
-14 -39 47 -49 50 0
-14 -39 -47 49 50 0
-14 -39 -47 -49 -50 0
8 24 29 45 -48 0
8 24 29 -45 48 0
8 24 -29 45 48 0
8 24 -29 -45 -48 0
8 -24 29 45 48 0
8 -24 29 -45 -48 0
8 -24 -29 45 -48 0
8 -24 -29 -45 48 0
-8 24 29 45 48 0
-8 24 29 -45 -48 0
-8 24 -29 45 -48 0
-8 24 -29 -45 48 0
-8 -24 29 45 -48 0
-8 -24 29 -45 48 0
-8 -24 -29 45 48 0
-8 -24 -29 -45 -48 0
9 36 44 46 50 0
9 36 44 -46 -50 0
9 36 -44 46 -50 0
9 36 -44 -46 50 0
9 -36 44 46 -50 0
9 -36 44 -46 50 0
9 -36 -44 46 50 0
9 -36 -44 -46 -50 0
-9 36 44 46 -50 0
-9 36 44 -46 50 0
-9 36 -44 46 50 0
-9 36 -44 -46 -50 0
-9 -36 44 46 50 0
-9 -36 44 -46 -50 0
-9 -36 -44 46 -50 0
-9 -36 -44 -46 50 0
